209
36
58
372
101
0
60
95
30
0
36
21
0
48
33
140
31
0
130
0
44
85
0
53
90
374
55
69
23
47
0
84
22
116
77
16
26
178
44
39
27
404
17
39
31
59
52
22
41
57
36
110
32
189
60
24
164
30
68
226
21
0
40
20
21
16
54
63
330
38
344
409
135
136
532
53
78
77
33
66
0
96
0
23
38
284
30
170
21
81
84
151
443
102
28
214
19
0
64
66
